NAME : input100_10.txt .out.tour
COMMENT : Tour for input100_10.txt .tsp (Length 1049.49)
TYPE : TOUR
DIMENSION : 100
TOUR_SECTION
1
87
75
97
12
47
85
56
72
9
69
65
68
64
96
92
94
83
19
76
86
70
89
43
58
24
99
48
84
34
52
18
26
73
40
7
62
35
37
55
15
32
91
100
79
98
33
2
95
77
80
54
20
6
42
30
51
60
46
5
22
90
67
14
50
45
36
88
61
27
39
38
44
66
3
8
41
28
57
31
16
63
81
23
17
21
10
13
4
25
49
93
74
59
71
53
82
29
11
78
1
